B16Cu2
1.0
  0.000000   0.000000  20.000000
  3.000000   0.000000   0.000000
  3.000000   5.196152   0.000000
B Cu
16 2
direct
  0.000000   0.000000   0.000000 B
  0.000000   0.000000   0.333333 B
  0.000000   0.000000   0.500000 B
  0.000000   0.000000   0.666667 B
  0.000000   0.000000   0.833333 B
  0.000000   0.333333   0.000000 B
  0.000000   0.333333   0.166667 B
  0.000000   0.333333   0.333333 B
  0.000000   0.333333   0.500000 B
  0.000000   0.333333   0.666667 B
  0.000000   0.333333   0.833333 B
  0.000000   0.666667   0.000000 B
  0.000000   0.666667   0.166667 B
  0.000000   0.666667   0.500000 B
  0.000000   0.666667   0.666667 B
  0.000000   0.666667   0.833333 B
  0.000000   0.000000   0.166667 Cu
  0.000000   0.666667   0.333333 Cu