S6Zn2
1
  2.828427   0.000000   0.000000
  0.000000   2.828427   0.000000
  0.000000   0.000000  12.000000
S Zn
6 2
direct
  0.000000   0.500000   0.250000 S
  0.000000   0.500000   0.583333 S
  0.000000   0.500000   0.916667 S
  0.500000   0.000000   0.083333 S
  0.500000   0.000000   0.416667 S
  0.500000   0.000000   0.750000 S
  0.000000   0.000000   0.666667 Zn
  0.500000   0.500000   0.833333 Zn
